c This file is generated by v2cnfMtr
c Generated on Mon Nov  9 15:41:37 2015
p cnf 331 848
-1 -3 -15 0
1 15 0
3 15 0
-3 -4 -12 0
3 12 0
4 12 0
-2 -12 -14 0
2 14 0
12 14 0
-5 -12 -13 0
5 13 0
12 13 0
-15 -18 -10 0
15 10 0
18 10 0
-31 -31 -11 0
31 11 0
31 11 0
6 16 0
-6 -16 0
7 17 0
-7 -17 0
-1 -16 19 0
1 -19 0
16 -19 0
-14 -6 20 0
14 -20 0
6 -20 0
-4 -16 21 0
4 -21 0
16 -21 0
-14 -6 22 0
14 -22 0
6 -22 0
-19 -17 23 0
19 -23 0
17 -23 0
-20 -7 24 0
20 -24 0
7 -24 0
-21 -17 25 0
21 -25 0
17 -25 0
-22 -7 26 0
22 -26 0
7 -26 0
23 24 -27 0
-23 27 0
-24 27 0
25 27 -28 0
-25 28 0
-27 28 0
28 26 -18 0
-28 18 0
-26 18 0
8 29 0
-8 -29 0
9 30 0
-9 -30 0
-1 -29 32 0
1 -32 0
29 -32 0
-13 -8 33 0
13 -33 0
8 -33 0
-4 -29 34 0
4 -34 0
29 -34 0
-13 -8 35 0
13 -35 0
8 -35 0
-32 -30 36 0
32 -36 0
30 -36 0
-33 -9 37 0
33 -37 0
9 -37 0
-34 -30 38 0
34 -38 0
30 -38 0
-35 -9 39 0
35 -39 0
9 -39 0
36 37 -40 0
-36 40 0
-37 40 0
38 40 -41 0
-38 41 0
-40 41 0
41 39 -31 0
-41 31 0
-39 31 0
c The second circuit:
-42 -44 -56 0
42 56 0
44 56 0
-44 -45 -53 0
44 53 0
45 53 0
-43 -53 -55 0
43 55 0
53 55 0
-46 -53 -54 0
46 54 0
53 54 0
-56 -59 -51 0
56 51 0
59 51 0
-72 -72 -52 0
72 52 0
72 52 0
47 57 0
-47 -57 0
48 58 0
-48 -58 0
-42 -57 60 0
42 -60 0
57 -60 0
-55 -47 61 0
55 -61 0
47 -61 0
-45 -57 62 0
45 -62 0
57 -62 0
-55 -47 63 0
55 -63 0
47 -63 0
-60 -58 64 0
60 -64 0
58 -64 0
-61 -48 65 0
61 -65 0
48 -65 0
-62 -58 66 0
62 -66 0
58 -66 0
-63 -48 67 0
63 -67 0
48 -67 0
64 65 -68 0
-64 68 0
-65 68 0
66 68 -69 0
-66 69 0
-68 69 0
69 67 -59 0
-69 59 0
-67 59 0
49 70 0
-49 -70 0
50 71 0
-50 -71 0
-42 -70 73 0
42 -73 0
70 -73 0
-54 -49 74 0
54 -74 0
49 -74 0
-45 -70 75 0
45 -75 0
70 -75 0
-54 -49 76 0
54 -76 0
49 -76 0
-73 -71 77 0
73 -77 0
71 -77 0
-74 -50 78 0
74 -78 0
50 -78 0
-75 -71 79 0
75 -79 0
71 -79 0
-76 -50 80 0
76 -80 0
50 -80 0
77 78 -81 0
-77 81 0
-78 81 0
79 81 -82 0
-79 82 0
-81 82 0
82 80 -72 0
-82 72 0
-80 72 0
c Force PIs of 2 ckts to be the same:
1 -42 0
-1 42 0
2 -43 0
-2 43 0
3 -44 0
-3 44 0
4 -45 0
-4 45 0
5 -46 0
-5 46 0
c XOR outputs of 2 ckts:
-10 -51 -83 0
10 51 -83 0
10 -51 83 0
-10 51 83 0
-11 -52 -84 0
11 52 -84 0
11 -52 84 0
-11 52 84 0
c The last OR gate of the miter:
83 84 -85 0
-83 85 0
-84 85 0
85 0
c New ckt:
-86 -88 -100 0
86 100 0
88 100 0
-88 -89 -97 0
88 97 0
89 97 0
-87 -97 -99 0
87 99 0
97 99 0
-90 -97 -98 0
90 98 0
97 98 0
-100 -103 -95 0
100 95 0
103 95 0
-116 -116 -96 0
116 96 0
116 96 0
91 101 0
-91 -101 0
92 102 0
-92 -102 0
-86 -101 104 0
86 -104 0
101 -104 0
-99 -91 105 0
99 -105 0
91 -105 0
-89 -101 106 0
89 -106 0
101 -106 0
-99 -91 107 0
99 -107 0
91 -107 0
-104 -102 108 0
104 -108 0
102 -108 0
-105 -92 109 0
105 -109 0
92 -109 0
-106 -102 110 0
106 -110 0
102 -110 0
-107 -92 111 0
107 -111 0
92 -111 0
108 109 -112 0
-108 112 0
-109 112 0
110 112 -113 0
-110 113 0
-112 113 0
113 111 -103 0
-113 103 0
-111 103 0
93 114 0
-93 -114 0
94 115 0
-94 -115 0
-86 -114 117 0
86 -117 0
114 -117 0
-98 -93 118 0
98 -118 0
93 -118 0
-89 -114 119 0
89 -119 0
114 -119 0
-98 -93 120 0
98 -120 0
93 -120 0
-117 -115 121 0
117 -121 0
115 -121 0
-118 -94 122 0
118 -122 0
94 -122 0
-119 -115 123 0
119 -123 0
115 -123 0
-120 -94 124 0
120 -124 0
94 -124 0
121 122 -125 0
-121 125 0
-122 125 0
123 125 -126 0
-123 126 0
-125 126 0
126 124 -116 0
-126 116 0
-124 116 0
6 -91 0
-6 91 0
7 -92 0
-7 92 0
8 -93 0
-8 93 0
9 -94 0
-9 94 0
-86 0
87 0
-88 0
-89 0
-90 0
95 0
-96 0
c New ckt:
-127 -129 -141 0
127 141 0
129 141 0
-129 -130 -138 0
129 138 0
130 138 0
-128 -138 -140 0
128 140 0
138 140 0
-131 -138 -139 0
131 139 0
138 139 0
-141 -144 -136 0
141 136 0
144 136 0
-157 -157 -137 0
157 137 0
157 137 0
132 142 0
-132 -142 0
133 143 0
-133 -143 0
-127 -142 145 0
127 -145 0
142 -145 0
-140 -132 146 0
140 -146 0
132 -146 0
-130 -142 147 0
130 -147 0
142 -147 0
-140 -132 148 0
140 -148 0
132 -148 0
-145 -143 149 0
145 -149 0
143 -149 0
-146 -133 150 0
146 -150 0
133 -150 0
-147 -143 151 0
147 -151 0
143 -151 0
-148 -133 152 0
148 -152 0
133 -152 0
149 150 -153 0
-149 153 0
-150 153 0
151 153 -154 0
-151 154 0
-153 154 0
154 152 -144 0
-154 144 0
-152 144 0
134 155 0
-134 -155 0
135 156 0
-135 -156 0
-127 -155 158 0
127 -158 0
155 -158 0
-139 -134 159 0
139 -159 0
134 -159 0
-130 -155 160 0
130 -160 0
155 -160 0
-139 -134 161 0
139 -161 0
134 -161 0
-158 -156 162 0
158 -162 0
156 -162 0
-159 -135 163 0
159 -163 0
135 -163 0
-160 -156 164 0
160 -164 0
156 -164 0
-161 -135 165 0
161 -165 0
135 -165 0
162 163 -166 0
-162 166 0
-163 166 0
164 166 -167 0
-164 167 0
-166 167 0
167 165 -157 0
-167 157 0
-165 157 0
47 -132 0
-47 132 0
48 -133 0
-48 133 0
49 -134 0
-49 134 0
50 -135 0
-50 135 0
-127 0
128 0
-129 0
-130 0
-131 0
136 0
-137 0
c New ckt:
-168 -170 -182 0
168 182 0
170 182 0
-170 -171 -179 0
170 179 0
171 179 0
-169 -179 -181 0
169 181 0
179 181 0
-172 -179 -180 0
172 180 0
179 180 0
-182 -185 -177 0
182 177 0
185 177 0
-198 -198 -178 0
198 178 0
198 178 0
173 183 0
-173 -183 0
174 184 0
-174 -184 0
-168 -183 186 0
168 -186 0
183 -186 0
-181 -173 187 0
181 -187 0
173 -187 0
-171 -183 188 0
171 -188 0
183 -188 0
-181 -173 189 0
181 -189 0
173 -189 0
-186 -184 190 0
186 -190 0
184 -190 0
-187 -174 191 0
187 -191 0
174 -191 0
-188 -184 192 0
188 -192 0
184 -192 0
-189 -174 193 0
189 -193 0
174 -193 0
190 191 -194 0
-190 194 0
-191 194 0
192 194 -195 0
-192 195 0
-194 195 0
195 193 -185 0
-195 185 0
-193 185 0
175 196 0
-175 -196 0
176 197 0
-176 -197 0
-168 -196 199 0
168 -199 0
196 -199 0
-180 -175 200 0
180 -200 0
175 -200 0
-171 -196 201 0
171 -201 0
196 -201 0
-180 -175 202 0
180 -202 0
175 -202 0
-199 -197 203 0
199 -203 0
197 -203 0
-200 -176 204 0
200 -204 0
176 -204 0
-201 -197 205 0
201 -205 0
197 -205 0
-202 -176 206 0
202 -206 0
176 -206 0
203 204 -207 0
-203 207 0
-204 207 0
205 207 -208 0
-205 208 0
-207 208 0
208 206 -198 0
-208 198 0
-206 198 0
6 -173 0
-6 173 0
7 -174 0
-7 174 0
8 -175 0
-8 175 0
9 -176 0
-9 176 0
-168 0
-169 0
-170 0
171 0
-172 0
-177 0
-178 0
c New ckt:
-209 -211 -223 0
209 223 0
211 223 0
-211 -212 -220 0
211 220 0
212 220 0
-210 -220 -222 0
210 222 0
220 222 0
-213 -220 -221 0
213 221 0
220 221 0
-223 -226 -218 0
223 218 0
226 218 0
-239 -239 -219 0
239 219 0
239 219 0
214 224 0
-214 -224 0
215 225 0
-215 -225 0
-209 -224 227 0
209 -227 0
224 -227 0
-222 -214 228 0
222 -228 0
214 -228 0
-212 -224 229 0
212 -229 0
224 -229 0
-222 -214 230 0
222 -230 0
214 -230 0
-227 -225 231 0
227 -231 0
225 -231 0
-228 -215 232 0
228 -232 0
215 -232 0
-229 -225 233 0
229 -233 0
225 -233 0
-230 -215 234 0
230 -234 0
215 -234 0
231 232 -235 0
-231 235 0
-232 235 0
233 235 -236 0
-233 236 0
-235 236 0
236 234 -226 0
-236 226 0
-234 226 0
216 237 0
-216 -237 0
217 238 0
-217 -238 0
-209 -237 240 0
209 -240 0
237 -240 0
-221 -216 241 0
221 -241 0
216 -241 0
-212 -237 242 0
212 -242 0
237 -242 0
-221 -216 243 0
221 -243 0
216 -243 0
-240 -238 244 0
240 -244 0
238 -244 0
-241 -217 245 0
241 -245 0
217 -245 0
-242 -238 246 0
242 -246 0
238 -246 0
-243 -217 247 0
243 -247 0
217 -247 0
244 245 -248 0
-244 248 0
-245 248 0
246 248 -249 0
-246 249 0
-248 249 0
249 247 -239 0
-249 239 0
-247 239 0
47 -214 0
-47 214 0
48 -215 0
-48 215 0
49 -216 0
-49 216 0
50 -217 0
-50 217 0
-209 0
-210 0
-211 0
212 0
-213 0
-218 0
-219 0
c New ckt:
-250 -252 -264 0
250 264 0
252 264 0
-252 -253 -261 0
252 261 0
253 261 0
-251 -261 -263 0
251 263 0
261 263 0
-254 -261 -262 0
254 262 0
261 262 0
-264 -267 -259 0
264 259 0
267 259 0
-280 -280 -260 0
280 260 0
280 260 0
255 265 0
-255 -265 0
256 266 0
-256 -266 0
-250 -265 268 0
250 -268 0
265 -268 0
-263 -255 269 0
263 -269 0
255 -269 0
-253 -265 270 0
253 -270 0
265 -270 0
-263 -255 271 0
263 -271 0
255 -271 0
-268 -266 272 0
268 -272 0
266 -272 0
-269 -256 273 0
269 -273 0
256 -273 0
-270 -266 274 0
270 -274 0
266 -274 0
-271 -256 275 0
271 -275 0
256 -275 0
272 273 -276 0
-272 276 0
-273 276 0
274 276 -277 0
-274 277 0
-276 277 0
277 275 -267 0
-277 267 0
-275 267 0
257 278 0
-257 -278 0
258 279 0
-258 -279 0
-250 -278 281 0
250 -281 0
278 -281 0
-262 -257 282 0
262 -282 0
257 -282 0
-253 -278 283 0
253 -283 0
278 -283 0
-262 -257 284 0
262 -284 0
257 -284 0
-281 -279 285 0
281 -285 0
279 -285 0
-282 -258 286 0
282 -286 0
258 -286 0
-283 -279 287 0
283 -287 0
279 -287 0
-284 -258 288 0
284 -288 0
258 -288 0
285 286 -289 0
-285 289 0
-286 289 0
287 289 -290 0
-287 290 0
-289 290 0
290 288 -280 0
-290 280 0
-288 280 0
6 -255 0
-6 255 0
7 -256 0
-7 256 0
8 -257 0
-8 257 0
9 -258 0
-9 258 0
-250 0
251 0
-252 0
253 0
-254 0
259 0
-260 0
c New ckt:
-291 -293 -305 0
291 305 0
293 305 0
-293 -294 -302 0
293 302 0
294 302 0
-292 -302 -304 0
292 304 0
302 304 0
-295 -302 -303 0
295 303 0
302 303 0
-305 -308 -300 0
305 300 0
308 300 0
-321 -321 -301 0
321 301 0
321 301 0
296 306 0
-296 -306 0
297 307 0
-297 -307 0
-291 -306 309 0
291 -309 0
306 -309 0
-304 -296 310 0
304 -310 0
296 -310 0
-294 -306 311 0
294 -311 0
306 -311 0
-304 -296 312 0
304 -312 0
296 -312 0
-309 -307 313 0
309 -313 0
307 -313 0
-310 -297 314 0
310 -314 0
297 -314 0
-311 -307 315 0
311 -315 0
307 -315 0
-312 -297 316 0
312 -316 0
297 -316 0
313 314 -317 0
-313 317 0
-314 317 0
315 317 -318 0
-315 318 0
-317 318 0
318 316 -308 0
-318 308 0
-316 308 0
298 319 0
-298 -319 0
299 320 0
-299 -320 0
-291 -319 322 0
291 -322 0
319 -322 0
-303 -298 323 0
303 -323 0
298 -323 0
-294 -319 324 0
294 -324 0
319 -324 0
-303 -298 325 0
303 -325 0
298 -325 0
-322 -320 326 0
322 -326 0
320 -326 0
-323 -299 327 0
323 -327 0
299 -327 0
-324 -320 328 0
324 -328 0
320 -328 0
-325 -299 329 0
325 -329 0
299 -329 0
326 327 -330 0
-326 330 0
-327 330 0
328 330 -331 0
-328 331 0
-330 331 0
331 329 -321 0
-331 321 0
-329 321 0
47 -296 0
-47 296 0
48 -297 0
-48 297 0
49 -298 0
-49 298 0
50 -299 0
-50 299 0
-291 0
292 0
-293 0
294 0
-295 0
300 0
-301 0
